100
8 0
24 0
35 1
21 4
38 1
35 4
14 3
7 4
32 0
40 0
15 3
33 3
28 2
13 3
33 4
13 0
41 4
31 4
22 4
21 3
28 0
36 0
17 3
6 4
16 0
4 3
38 2
34 3
17 0
3 2
22 0
25 0
8 4
42 0
32 2
37 4
14 4
40 3
40 1
26 4
37 2
19 1
1 0
23 4
27 0
26 0
13 4
18 4
19 4
31 1
29 0
44 0
37 0
15 4
29 4
44 3
0 3
9 0
20 2
26 2
19 3
25 3
12 4
9 4
41 1
30 0
16 4
20 3
18 3
16 2
39 3
4 4
31 0
25 4
22 1
41 0
17 4
18 0
37 1
20 4
38 0
42 1
5 0
5 1
29 2
9 1
14 1
27 4
23 2
11 3
1 4
19 0
42 4
10 0
38 4
27 3
39 2
33 0
22 3
32 1

